syn10h.py
Ipopt 3.12.8: 
==> Warning: Treating 4 binary and 6 integer variables as continous.


******************************************************************************
This program contains Ipopt, a library for large-scale nonlinear optimization.
 Ipopt is released as open source code under the Eclipse Public License (EPL).
         For more information visit http://projects.coin-or.org/Ipopt
******************************************************************************

This is Ipopt version 3.12.8, running with linear solver ma27.

Number of nonzeros in equality constraint Jacobian...:      116
Number of nonzeros in inequality constraint Jacobian.:      126
Number of nonzeros in Lagrangian Hessian.............:       30

Total number of variables............................:       77
                     variables with only lower bounds:       65
                variables with lower and upper bounds:       12
                     variables with only upper bounds:        0
Total number of equality constraints.................:       54
Total number of inequality constraints...............:       58
        inequality constraints with only lower bounds:       10
   inequality constraints with lower and upper bounds:        0
        inequality constraints with only upper bounds:       48

iter    objective    inf_pr   inf_du lg(mu)  ||d||  lg(rg) alpha_du alpha_pr  ls
   0 -1.6459984e+01 9.80e-01 1.33e+01  -1.0 0.00e+00    -  0.00e+00 0.00e+00   0
   1 -2.7887626e+01 9.05e-01 1.28e+01  -1.0 4.97e+00    -  1.26e-02 7.69e-02f  1
   2 -3.9869980e+01 7.95e-01 1.34e+01  -1.0 4.79e+00    -  8.13e-02 1.21e-01f  1
   3 -9.3048849e+01 6.76e-01 1.47e+01  -1.0 4.19e+00    -  7.01e-02 1.50e-01f  1
   4 -2.0949685e+02 6.27e-01 1.48e+01  -1.0 7.88e+00    -  4.82e-02 7.27e-02f  1
   5 -4.7566467e+02 5.30e-01 1.49e+01  -1.0 9.74e+00    -  1.04e-01 1.55e-01f  1
   6 -6.3518211e+02 4.53e-01 1.77e+01  -1.0 1.07e+01    -  5.04e-01 1.45e-01f  1
   7 -8.0753964e+02 3.39e-01 1.38e+01  -1.0 9.98e+00    -  3.00e-01 2.53e-01f  1
   8 -9.2376320e+02 2.59e-01 3.04e+01  -1.0 7.35e+00    -  5.99e-01 2.37e-01f  1
   9 -1.0181872e+03 1.85e-01 3.72e+01  -1.0 4.31e+00    -  1.00e+00 2.84e-01f  1
iter    objective    inf_pr   inf_du lg(mu)  ||d||  lg(rg) alpha_du alpha_pr  ls
  10 -1.2222170e+03 1.50e-02 5.77e+00  -1.0 2.30e+00    -  9.54e-01 9.19e-01f  1
  11 -1.2325049e+03 5.13e-03 2.25e+02  -1.0 1.92e-01    -  1.00e+00 6.58e-01h  1
  12 -1.2362114e+03 6.79e-04 2.40e+02  -1.0 7.77e-02    -  1.00e+00 8.88e-01h  1
  13 -1.2359507e+03 3.66e-04 1.09e+04  -1.0 3.41e-02    -  1.00e+00 3.64e-01h  1
  14 -1.2356145e+03 1.49e-04 1.53e+04  -1.0 1.47e-02    -  1.00e+00 5.93e-01h  1
  15 -1.2354980e+03 6.13e-05 3.31e+04  -1.0 6.72e-03    -  1.00e+00 5.89e-01h  1
  16 -1.2354473e+03 2.50e-05 7.71e+04  -1.0 2.63e-03    -  1.00e+00 5.91e-01h  1
  17 -1.2354467e+03 2.46e-05 4.35e+05  -1.0 1.08e-03    -  1.00e+00 1.87e-02f  6
  18 -1.2354196e+03 5.16e-06 1.67e+05  -1.0 1.06e-03    -  1.00e+00 7.90e-01h  1
  19 -1.2354152e+03 1.99e-06 6.19e+05  -1.0 2.22e-04    -  1.00e+00 6.15e-01h  1
iter    objective    inf_pr   inf_du lg(mu)  ||d||  lg(rg) alpha_du alpha_pr  ls
  20 -1.2354151e+03 1.90e-06 2.97e+06  -1.0 8.56e-05    -  1.00e+00 4.63e-02f  5
  21 -1.2354124e+03 1.78e-15 3.38e-06  -1.0 8.17e-05    -  1.00e+00 1.00e+00h  1
  22 -1.2632143e+03 5.32e-05 1.27e+06  -8.6 6.04e-01    -  7.60e-01 9.50e-01f  1
  23 -1.2671499e+03 2.18e-04 1.32e+05  -8.6 3.92e-01    -  8.95e-01 8.92e-01f  1
  24 -1.2674771e+03 1.61e-04 1.29e+05  -8.6 1.33e-01    -  1.06e-01 4.05e-01f  1
  25 -1.2676896e+03 2.18e-05 1.79e+04  -8.6 8.16e-02    -  8.68e-01 9.14e-01f  1
  26 -1.2676963e+03 1.46e-05 2.57e+02  -8.6 9.36e-03    -  9.50e-01 3.31e-01h  1
  27 -1.2677089e+03 4.98e-07 4.47e+01  -8.6 6.25e-03    -  9.12e-01 9.66e-01h  1
  28 -1.2677093e+03 4.69e-08 3.06e+00  -8.6 2.12e-04    -  1.00e+00 9.27e-01h  1
In iteration 28, 3 Slacks too small, adjusting variable bounds
  29 -1.2677093e+03 2.43e-08 3.73e+00  -8.6 1.54e-05    -  3.52e-01 4.81e-01f  1
iter    objective    inf_pr   inf_du lg(mu)  ||d||  lg(rg) alpha_du alpha_pr  ls
  30 -1.2677093e+03 5.74e-09 4.75e+00  -8.6 8.00e-06    -  9.57e-01 8.57e-01f  1
  31 -1.2677093e+03 3.13e-09 1.61e+00  -8.6 1.14e-06    -  1.00e+00 8.33e-01f  1
  32 -1.2677093e+03 2.17e-10 7.34e+00  -8.6 2.06e-07    -  1.48e-01 5.00e-01f  2
  33 -1.2677093e+03 1.78e-15 2.21e-02  -8.6 1.05e-07    -  1.00e+00 1.00e+00h  1
  34 -1.2677093e+03 4.44e-16 1.69e-04  -8.6 8.80e-10    -  1.00e+00 1.00e+00h  1
  35 -1.2677093e+03 4.44e-16 1.44e-06  -8.6 5.23e-11    -  1.00e+00 1.00e+00h  1
  36 -1.2677093e+03 1.78e-15 1.00e-10  -8.6 4.65e-13    -  1.00e+00 1.00e+00h  1

Number of Iterations....: 36

                                   (scaled)                 (unscaled)
Objective...............:  -2.5354186170952309e+02   -1.2677093085476154e+03
Dual infeasibility......:   1.0037859432543428e-10    5.0189297162717139e-10
Constraint violation....:   1.7763568394002505e-15    1.7763568394002505e-15
Complementarity.........:   2.5059045768293128e-09    1.2529522884146563e-08
Overall NLP error.......:   2.5059045768293128e-09    1.2529522884146563e-08


Number of objective function evaluations             = 47
Number of objective gradient evaluations             = 37
Number of equality constraint evaluations            = 47
Number of inequality constraint evaluations          = 47
Number of equality constraint Jacobian evaluations   = 37
Number of inequality constraint Jacobian evaluations = 37
Number of Lagrangian Hessian evaluations             = 36
Total CPU secs in IPOPT (w/o function evaluations)   =      0.012
Total CPU secs in NLP function evaluations           =      0.004

EXIT: Optimal Solution Found.

Time elapsed: 0.144994020462